Version identifier: 22.1.0.0 | 2022-03-09 | 1a383f8ce
CPXPARAM_Threads                                 1
CPXPARAM_MIP_Strategy_VariableSelect             3
CPXPARAM_TimeLimit                               599.99998563899999
1 of 1 MIP starts provided solutions.
MIP start 'm1' defined initial solution with objective 1.0000.
Tried aggregator 1 time.
MIP Presolve eliminated 13 rows and 0 columns.
MIP Presolve modified 1 coefficients.
Reduced MIP has 1410 rows, 4800 columns, and 61324 nonzeros.
Reduced MIP has 4800 binaries, 0 generals, 0 SOSs, and 0 indicators.
Presolve time = 0.04 sec. (30.77 ticks)
Probing time = 0.01 sec. (5.71 ticks)
Tried aggregator 1 time.
Detecting symmetries...
Reduced MIP has 1410 rows, 4800 columns, and 61324 nonzeros.
Reduced MIP has 4800 binaries, 0 generals, 0 SOSs, and 0 indicators.
Presolve time = 0.05 sec. (34.98 ticks)
Probing time = 0.01 sec. (5.71 ticks)
Clique table members: 795.
MIP emphasis: balance optimality and feasibility.
MIP search method: dynamic search.
Parallel mode: none, using 1 thread.
Root relaxation solution time = 0.73 sec. (723.70 ticks)

        Nodes                                         Cuts/
   Node  Left     Objective  IInf  Best Integer    Best Bound    ItCnt     Gap

*     0+    0                            1.0000     4800.0000              --- 
      0     0      200.0000   838        1.0000      200.0000     3556     --- 
      0     0      200.0000   331        1.0000       Cuts: 6     4326     --- 
      0     0      200.0000   370        1.0000      Cuts: 11     5088     --- 
      0     0      200.0000   678        1.0000      Cuts: 29     9440     --- 
*     0+    0                          127.0000      200.0000            57.48%
*     0+    0                          186.0000      200.0000             7.53%
      0     0        cutoff            186.0000      200.0000     9440    7.53%
Detecting symmetries...
      0     2      200.0000   275      186.0000      200.0000     9440    7.53%
Elapsed time = 33.58 sec. (33955.82 ticks, tree = 0.01 MB, solutions = 3)
      1     1        cutoff            186.0000      200.0000    11512    7.53%
      2     2      200.0000   635      186.0000      200.0000    15350    7.53%
      3     3      200.0000   408      186.0000      200.0000    16485    7.53%
      4     4      200.0000   417      186.0000      200.0000    23349    7.53%
      5     5      200.0000   404      186.0000      200.0000    23513    7.53%
      6     6      200.0000   349      186.0000      200.0000    27311    7.53%
      7     7      200.0000   342      186.0000      200.0000    29512    7.53%
      8     8      200.0000   412      186.0000      200.0000    30759    7.53%
      9     9      200.0000   366      186.0000      200.0000    37838    7.53%
     11    11      199.9169   547      186.0000      200.0000    48258    7.53%
Elapsed time = 44.07 sec. (44690.16 ticks, tree = 0.05 MB, solutions = 3)
     13    13      199.9668   635      186.0000      200.0000    60793    7.53%
     14    14      200.0000   341      186.0000      200.0000    69189    7.53%
     15    15      200.0000   319      186.0000      200.0000    80940    7.53%
     16    16      200.0000   310      186.0000      200.0000    86965    7.53%
     17    17      200.0000   281      186.0000      200.0000    91098    7.53%
     18    18      200.0000   366      186.0000      200.0000    97043    7.53%
     19    19      200.0000   376      186.0000      200.0000   100737    7.53%
     20    20      200.0000   359      186.0000      200.0000   100900    7.53%
     23    22      200.0000   360      186.0000      200.0000   104500    7.53%
     25    24      200.0000   362      186.0000      200.0000   110800    7.53%
Elapsed time = 63.21 sec. (63822.57 ticks, tree = 0.10 MB, solutions = 3)
     26    25      199.8711   499      186.0000      200.0000   115374    7.53%
     27    26      199.9226   558      186.0000      200.0000   121560    7.53%
     28    26      200.0000   474      186.0000      200.0000   125872    7.53%
     30    28      200.0000   445      186.0000      200.0000   126687    7.53%
     32    30      200.0000   510      186.0000      200.0000   128961    7.53%
     33    31      199.7937   606      186.0000      200.0000   133736    7.53%
     35    33      200.0000   459      186.0000      200.0000   136555    7.53%
     38    36      200.0000   460      186.0000      200.0000   145855    7.53%
     41    38      200.0000   390      186.0000      200.0000   149467    7.53%
     44    41      199.6945   462      186.0000      200.0000   153357    7.53%
Elapsed time = 76.12 sec. (76235.54 ticks, tree = 0.31 MB, solutions = 3)
     48    43    infeasible            186.0000      200.0000   157144    7.53%
     51    46      200.0000   299      186.0000      200.0000   161056    7.53%
     54    49      200.0000   262      186.0000      200.0000   166675    7.53%
     57    52      200.0000   258      186.0000      200.0000   170157    7.53%
     60    55      200.0000   292      186.0000      200.0000   176557    7.53%
     62    57      200.0000   284      186.0000      200.0000   182379    7.53%
     65    60      200.0000   279      186.0000      200.0000   188461    7.53%
     68    63      200.0000   277      186.0000      200.0000   199113    7.53%
     70    65      200.0000   248      186.0000      200.0000   199714    7.53%
     72    67      200.0000   247      186.0000      200.0000   205597    7.53%
Elapsed time = 91.63 sec. (91103.29 ticks, tree = 0.65 MB, solutions = 3)
     73    68      199.6517   419      186.0000      200.0000   216750    7.53%
     75    70      199.6753   367      186.0000      200.0000   222509    7.53%
     76    71      200.0000   381      186.0000      200.0000   228465    7.53%
     79    74      200.0000   327      186.0000      200.0000   235957    7.53%
     81    76      200.0000   365      186.0000      200.0000   246705    7.53%
     85    79      200.0000   358      186.0000      200.0000   255245    7.53%
     88    81      199.6918   308      186.0000      200.0000   268829    7.53%
     92    83      200.0000   290      186.0000      200.0000   280965    7.53%
     95    86      200.0000   261      186.0000      200.0000   296478    7.53%
     96    87      199.9570   300      186.0000      200.0000   314221    7.53%
Elapsed time = 106.37 sec. (103925.70 ticks, tree = 0.89 MB, solutions = 3)
     98    89      200.0000   231      186.0000      200.0000   318646    7.53%
    101    91      200.0000   180      186.0000      200.0000   320509    7.53%
    104    93      199.9609   358      186.0000      200.0000   327621    7.53%
    107    95      199.9609   357      186.0000      200.0000   332452    7.53%
    110    98      199.9609   362      186.0000      200.0000   333472    7.53%
    112   100      199.8729   354      186.0000      200.0000   335424    7.53%
    116   102      199.8307   340      186.0000      200.0000   338546    7.53%
    121   106      199.8307   326      186.0000      200.0000   340370    7.53%
    127   112      199.8307   337      186.0000      200.0000   341908    7.53%
    132   117      199.6761   323      186.0000      200.0000   343943    7.53%
Elapsed time = 117.92 sec. (115325.47 ticks, tree = 1.28 MB, solutions = 3)
    136   120      199.6761   334      186.0000      200.0000   346622    7.53%
    141   125      199.8300   350      186.0000      200.0000   348750    7.53%
    146   130      199.7486   344      186.0000      200.0000   350799    7.53%
    151   132      199.7063   364      186.0000      200.0000   353069    7.53%
    156   134      199.8176   359      186.0000      200.0000   354585    7.53%
    161   139      199.8015   318      186.0000      200.0000   356904    7.53%
    167   144      199.5737   295      186.0000      200.0000   359869    7.53%
    173   150      199.5737   324      186.0000      200.0000   361447    7.53%
    178   153      199.8015   343      186.0000      200.0000   363240    7.53%
    182   157      199.8015   359      186.0000      200.0000   365837    7.53%
Elapsed time = 128.28 sec. (125674.45 ticks, tree = 1.79 MB, solutions = 3)
    186   160      199.3764   356      186.0000      200.0000   368616    7.53%
    193   163      199.4393   368      186.0000      200.0000   371304    7.53%
    199   168      199.2930   363      186.0000      200.0000   374175    7.53%
    205   172      199.8015   357      186.0000      200.0000   376161    7.53%
    209   175      199.7385   373      186.0000      200.0000   378943    7.53%
    216   180      199.8015   361      186.0000      200.0000   380250    7.53%
    221   184      199.6782   366      186.0000      200.0000   383101    7.53%
    227   187      199.7125   340      186.0000      200.0000   385613    7.53%
    232   191      199.4323   355      186.0000      200.0000   388146    7.53%
    238   196      199.7105   323      186.0000      200.0000   390704    7.53%
Elapsed time = 139.07 sec. (136505.91 ticks, tree = 2.31 MB, solutions = 3)
    244   201      199.7105   339      186.0000      200.0000   393093    7.53%
    251   207      199.5200   379      186.0000      200.0000   395109    7.53%
    257   210      199.6177   373      186.0000      200.0000   396663    7.53%
    261   213      199.4369   314      186.0000      200.0000   399043    7.53%
    266   218      199.2504   359      186.0000      200.0000   401311    7.53%
    272   224      198.8750   361      186.0000      200.0000   403471    7.53%
    278   229      199.4539   331      186.0000      200.0000   405399    7.53%
    284   234      199.6174   393      186.0000      200.0000   406985    7.53%
    289   236      199.6066   359      186.0000      200.0000   409499    7.53%
    293   239      199.3523   299      186.0000      200.0000   411885    7.53%
Elapsed time = 149.59 sec. (146967.92 ticks, tree = 2.87 MB, solutions = 3)
    298   243      199.5869   381      186.0000      200.0000   413491    7.53%
    303   247      199.4944   358      186.0000      200.0000   415815    7.53%
    309   253      199.5340   382      186.0000      200.0000   417333    7.53%
    315   255      198.8750   350      186.0000      200.0000   419901    7.53%
    322   262      199.5326   390      186.0000      200.0000   421233    7.53%
    328   266      199.1571   348      186.0000      200.0000   423847    7.53%
    335   273      199.5326   387      186.0000      200.0000   425649    7.53%
    340   277      199.5326   377      186.0000      200.0000   427235    7.53%
    346   283      199.5326   369      186.0000      200.0000   429454    7.53%
    366   299      199.1150   355      186.0000      200.0000   436709    7.53%
Elapsed time = 163.63 sec. (160651.22 ticks, tree = 3.66 MB, solutions = 3)
    388   317      199.3672   334      186.0000      200.0000   446026    7.53%
    411   331      199.2617   353      186.0000      200.0000   455560    7.53%
    439   358      199.1222   322      186.0000      200.0000   462247    7.53%
    466   383      198.9480   289      186.0000      200.0000   469929    7.53%
*   474+  387                          187.0000      200.0000             6.95%
*   474+  387                          188.0000      200.0000             6.38%
    474   388      198.6762   304      188.0000      200.0000   471959    6.38%
*   475+  387                          189.0000      200.0000             5.82%
    475   389      199.5400   381      189.0000      200.0000   475292    5.82%
*   476+  388                          190.0000      200.0000             5.26%
    476   390      199.9827   459      190.0000      200.0000   483783    5.26%
    478   392      199.9827   451      190.0000      200.0000   498960    5.26%
    485   399      199.9827   446      190.0000      200.0000   511058    5.26%
    497   409      199.9827   447      190.0000      200.0000   519428    5.26%
Elapsed time = 239.17 sec. (227836.56 ticks, tree = 5.11 MB, solutions = 7)
    511   422      199.9814   438      190.0000      200.0000   525921    5.26%
    523   434      199.9814   422      190.0000      200.0000   534328    5.26%
    536   445      199.7767   398      190.0000      200.0000   543322    5.26%
    551   458      199.9814   384      190.0000      200.0000   551453    5.26%
    563   469      199.9814   412      190.0000      200.0000   558334    5.26%
    578   480      199.8524   385      190.0000      200.0000   568107    5.26%

Performing restart 1

Repeating presolve.
Tried aggregator 1 time.
MIP Presolve eliminated 0 rows and 1 columns.
Reduced MIP has 1410 rows, 4799 columns, and 61302 nonzeros.
Reduced MIP has 4799 binaries, 0 generals, 0 SOSs, and 0 indicators.
Presolve time = 0.04 sec. (30.23 ticks)
Tried aggregator 1 time.
Reduced MIP has 1410 rows, 4799 columns, and 61302 nonzeros.
Reduced MIP has 4799 binaries, 0 generals, 0 SOSs, and 0 indicators.
Presolve time = 0.05 sec. (36.09 ticks)
Represolve time = 0.31 sec. (228.06 ticks)
    586     0      200.0000   405      190.0000      Cuts: 11   585481    5.26%
    586     0      200.0000   540      190.0000      Cuts: 13   591689    5.26%
    586     0      200.0000   576      190.0000      Cuts: 22   601436    5.26%
    586     0      200.0000   429      190.0000      Cuts: 17   606431    5.26%
    586     0      200.0000   477      190.0000      Cuts: 10   611800    5.26%
    586     0      200.0000   576      190.0000      Cuts: 51   618065    5.26%
    586     2      200.0000   397      190.0000      200.0000   618065    5.26%
    588     4      200.0000   535      190.0000      200.0000   632550    5.26%
    593     7      200.0000   457      190.0000      200.0000   655503    5.26%
    596     8        cutoff            190.0000      200.0000   667740    5.26%
Elapsed time = 369.31 sec. (364735.67 ticks, tree = 0.02 MB, solutions = 7)
    598    10      200.0000   389      190.0000      200.0000   677966    5.26%
    602    14      200.0000   412      190.0000      200.0000   688475    5.26%
    605    17      200.0000   414      190.0000      200.0000   701458    5.26%
    607    19      200.0000   560      190.0000      200.0000   713162    5.26%
    608    20      200.0000   434      190.0000      200.0000   728923    5.26%
    612    24      199.9380   734      190.0000      200.0000   742575    5.26%
    617    29      199.9380   811      190.0000      200.0000   756936    5.26%
    620    32      200.0000   414      190.0000      200.0000   768050    5.26%
    625    37      200.0000   363      190.0000      200.0000   787055    5.26%
    628    40      200.0000   334      190.0000      200.0000   808169    5.26%
Elapsed time = 413.06 sec. (409913.28 ticks, tree = 0.10 MB, solutions = 7)
    630    42      199.7734   608      190.0000      200.0000   832327    5.26%
    634    46      199.7793   569      190.0000      200.0000   856869    5.26%
    640    52      200.0000   466      190.0000      200.0000   872708    5.26%
    646    58      200.0000   424      190.0000      200.0000   880723    5.26%
    652    64      200.0000   446      190.0000      200.0000   913267    5.26%
    656    67      199.7793   536      190.0000      200.0000   939486    5.26%
    664    72      199.8750   384      190.0000      200.0000   949226    5.26%
    666    73      200.0000   204      190.0000      200.0000   961290    5.26%
    673    78      199.7000   452      190.0000      200.0000   979018    5.26%
    676    80      200.0000   172      190.0000      200.0000  1000993    5.26%
Elapsed time = 462.04 sec. (459351.37 ticks, tree = 0.20 MB, solutions = 7)
    679    83      199.9086   318      190.0000      200.0000  1017379    5.26%
    682    86      199.7000   380      190.0000      200.0000  1034350    5.26%
    685    89      200.0000   154      190.0000      200.0000  1049112    5.26%
    686    90      199.9957   456      190.0000      200.0000  1055428    5.26%
    694    96      199.0000   448      190.0000      200.0000  1070647    5.26%
    699    97      199.0000   402      190.0000      200.0000  1088487    5.26%
    705   101      199.0000   364      190.0000      200.0000  1101521    5.26%
    706   102      198.9375   361      190.0000      200.0000  1109497    5.26%
    714   110      198.9375   343      190.0000      200.0000  1120430    5.26%
    723   119      198.0000   374      190.0000      200.0000  1132118    5.26%
Elapsed time = 539.10 sec. (530446.76 ticks, tree = 0.29 MB, solutions = 7)
    733   124      198.9200   368      190.0000      200.0000  1143599    5.26%
    740   131      198.0000   387      190.0000      200.0000  1156559    5.26%
    749   138      198.0000   247      190.0000      200.0000  1170443    5.26%
    755   140      198.0000   210      190.0000      200.0000  1188448    5.26%
    760   144      198.0000   305      190.0000      200.0000  1206911    5.26%
    766   150      197.8235   279      190.0000      200.0000  1224508    5.26%
    772   156      198.0000   321      190.0000      200.0000  1244096    5.26%
    780   162      197.0000   174      190.0000      200.0000  1258325    5.26%
Starting limited solution polishing.
    789   167      197.0000   206      190.0000      200.0000  1276801    5.26%
    796   172      197.0000   175      190.0000      200.0000  1293108    5.26%
Elapsed time = 581.07 sec. (572378.42 ticks, tree = 0.40 MB, solutions = 7)
    806   176    infeasible            190.0000      200.0000  1308667    5.26%
    813   180      197.0000   215      190.0000      200.0000  1326866    5.26%
    821   180      197.0000   271      190.0000      200.0000  1345082    5.26%
    828   185      197.0000   181      190.0000      200.0000  1359266    5.26%

Clique cuts applied:  7
Zero-half cuts applied:  23
Gomory fractional cuts applied:  6

Root node processing (before b&c):
  Real time             =   33.51 sec. (33889.86 ticks)
Sequential b&c:
  Real time             =  566.49 sec. (556993.55 ticks)
                          ------------
Total (root+branch&cut) =  600.00 sec. (590883.41 ticks)
Primal:	190
Dual:	200
Status:	Feasible
Time:	599.98
Sequence:
	21
	8
	14
	10
	17
	1
	20
	8
	14
	10
	17
	0
	22
	8
	14
	2
	17
	9
	16
	6
	15
	10
	15
	6
	17
	3
	19
	8
	14
	10
	17
	1
	20
	6
	14
	8
	17
	4
	18
	6
	15
	6
	17
	3
	19
	6
	16
	6
	17
	5
	17
	8
	16
	6
	19
	2
	18
	8
	14
	10
	14
	8
	16
	7
	17
	4
	17
	8
	16
	7
	17
	4
	19
	6
	14
	7
	14
	8
	12
	14
	6
	6
	5
	6
	17
	2
	19
	9
	14
	6
	16
	8
	6
	3
	17
	8
	15
	10
	7
	14
	12
	6
	15
	7
	16
	8
	14
	6
	14
	13
	8
	14
	6
	14
	10
	14
	6
	19
	5
	17
	6
	14
	8
	19
	2
	18
	6
	16
	8
	17
	5
	17
	6
	16
	8
	18
	4
	17
	6
	16
	9
	15
	10
	14
	6
	18
	4
	14
	6
	20
	0
	17
	12
	14
	6
	17
	4
	17
	9
	16
	6
	14
	8
	20
	0
	17
	10
	15
	6
	16
	7
	14
	12
	8
	14
	11
	14
	6
	10
	14
	8
	14
	11
	15
	6
	15
	10
	14
	9
	20
